c
c Renamed file of cmb.cnf 
c Variables are renamed according to left2right.ord 
c
c Date: Thu Apr 29 14:49:15 PDT 2004 by (jinbo)
c Host: Linux solution 2.4.18-4smp #1 SMP Thu May 2 18:32:34 EDT 2002 i686 unknown
c
c Copyright (c) 2001 Fadi A. Aloul.
c
p cnf 62 147
44 -49 0
47 -49 0
46 -49 0
-53 -49 0
49 -44 -47 -46 53 0
-49 50 0
-50 49 0
9 -10 0
10 -9 0
-10 11 0
-14 -12 0
12 14 0
-12 11 0
-11 10 12 0
-5 -3 0
3 5 0
-3 1 0
-14 -2 0
2 14 0
-2 1 0
-1 3 2 0
-9 -6 0
-5 -6 0
-8 -6 0
-15 -6 0
6 9 5 8 15 0
-6 4 0
-4 6 0
20 -22 0
23 -22 0
26 -22 0
-29 -22 0
22 -20 -23 -26 29 0
-22 14 0
20 -21 0
23 -21 0
-28 -21 0
-29 -21 0
21 -20 -23 28 29 0
-21 14 0
20 -25 0
-26 -25 0
-28 -25 0
-29 -25 0
25 -20 26 28 29 0
-25 14 0
-23 -24 0
-26 -24 0
-28 -24 0
-29 -24 0
24 23 26 28 29 0
-24 14 0
-14 22 21 25 24 0
20 -58 0
60 -58 0
59 -58 0
58 -20 -60 -59 0
-58 57 0
-57 58 0
31 -32 0
28 -32 0
26 -32 0
23 -32 0
32 -31 -28 -26 -23 0
-32 51 0
-51 32 0
-55 -54 0
54 55 0
-54 53 0
-62 -61 0
61 62 0
-61 53 0
-57 -56 0
56 57 0
-56 53 0
-51 -52 0
52 51 0
-52 53 0
-53 54 61 56 52 0
-31 -27 0
-28 -27 0
-26 -27 0
27 31 28 26 0
-27 17 0
-17 27 0
-43 -45 0
-44 -45 0
-47 -45 0
-46 -45 0
45 43 44 47 46 0
-45 35 0
-35 45 0
23 -19 0
19 -23 0
-19 15 0
20 -18 0
18 -20 0
-18 15 0
-17 -16 0
16 17 0
-16 15 0
-35 -34 0
34 35 0
-34 15 0
-15 19 18 16 34 0
-44 -42 0
43 -42 0
42 44 -43 0
-42 40 0
-43 -36 0
8 -36 0
36 43 -8 0
-36 40 0
-8 -7 0
5 -7 0
7 8 -5 0
-7 40 0
20 -13 0
-9 -13 0
13 -20 9 0
-13 40 0
-40 42 36 7 13 0
-44 -39 0
-40 -39 0
39 44 40 0
-39 38 0
47 -41 0
-40 -41 0
41 -47 40 0
-41 38 0
-38 39 41 0
-38 -37 0
37 38 0
-37 29 0
-28 -30 0
31 -30 0
30 28 -31 0
-30 29 0
-31 -33 0
46 -33 0
33 31 -46 0
-33 29 0
-46 -48 0
47 -48 0
48 46 -47 0
-48 29 0
-29 37 30 33 48 0
